&CONTROL
  calculation = 'scf'
  prefix      = 'diamond_F_bands'
  outdir      = './tmp'
  pseudo_dir  = '/home/rania/diamond_project'
/
&SYSTEM
  ibrav=0 nat=9 ntyp=2
  ecutwfc=40.0 ecutrho=160.0
  occupations='smearing'
  smearing='mv'
  degauss=0.02
/
&ELECTRONS
  conv_thr=1e-8
/
ATOMIC_SPECIES
  C  12.011  C.pbe-n-kjpaw_psl.1.0.0.UPF
  F  18.998  F.pbe-n-kjpaw_psl.1.0.0.UPF
CELL_PARAMETERS angstrom
  2.522   0.000   0.000
  1.261   2.184   0.000
  0.000   0.000  20.000
ATOMIC_POSITIONS angstrom
  C  0.000  0.000  0.000
  C  1.261  0.728  0.515
  C  0.000  0.000  2.060
  C  1.261  0.728  2.575
  C  0.000  0.000  4.120
  C  1.261  0.728  4.635
  C  0.000  0.000  6.180
  C  1.261  0.728  6.695
  F  0.000  0.000  8.100
K_POINTS automatic
  8 8 1 0 0 0
