&BANDS
  prefix      = 'diamond_bands'
  outdir      = './tmp'
  filband     = 'diamond.bands'
/
